33D32945 STP File, STP Format Version 1.0

SECTION Comments
Name "shell_n11_d2_s36"
Problem "Euclidean Steiner Tree Problem"
Remark "Generated with STPGenerator. 2 dimensions."
END

SECTION Graph
Nodes 11
END

SECTION Coordinates
DD 0 -0.6187622289 -0.7855783246
DD 1 0.2287796481 0.9734782343
DD 2 -0.0783829209 -0.9969233259
DD 3 -0.9273593594 0.3741719103
DD 4 0.7232790565 0.6905558677
DD 5 -0.2806509574 0.9598098979
DD 6 -0.3229490024 -0.9464163681
DD 7 -0.3925614113 -0.9197257952
DD 8 0.3429389276 -0.9393577018
DD 9 -0.6894311473 0.7243512222
DD 10 -0.6863620321 -0.7272600366
END
